





























































































41 24 51 52 
30 57 35 
21 44 29 40 
74 8 2 14 
61 53 65 6 
58 10 5 
25 13 55 48 
75 60 36 19 
12 64 47 38 
33 71 54 45 
46 73 68 28 
49 42 23 31 
37 18 0 
11 76 62 7 
15 3 26 
70 32 56 63 
39 69 72 
66 34 4 
59 1 50 22 
20 27 9 16 
67 43 17 
